NAME : kroA150
TYPE : OP
DIMENSION : 150
COST_LIMIT : 13262
ROUTE_NODES : 79
ROUTE_SCORE : 5019
ROUTE_COST : 13197
NODE_SEQUENCE_SECTION
1
47
109
91
98
23
110
77
60
62
150
35
86
27
12
20
57
7
9
117
34
83
55
149
120
115
123
43
128
136
41
71
100
48
14
3
46
29
132
112
107
30
121
101
39
96
78
52
5
37
103
146
33
76
13
95
126
82
116
50
44
144
114
73
68
85
135
140
145
87
51
125
25
81
61
58
28
93
130
-1
DEPOT_SECTION
1
-1
EOF
